\ENCODING=ISO-8859-1
\Problem name: ilog.cplex

Minimize
 obj1: 96780 x1 + 90309 x2 + 97247 x3 + 100527 x4 + 102136 x5 + 108942 x6
       + 103117 x7 + 100928 x8 + 90365 x9 + 98044 x10 + 90754 x11 + 106996 x12
       + 107101 x13 + 96663 x14 + 102339 x15 + 93520 x16 + 100416 x17
       + 108232 x18 + 109037 x19 + 93589 x20 + 96555 x21 + 97047 x22
       + 100756 x23 + 108556 x24 + 95104 x25 + 107516 x26 + 98137 x27
       + 90905 x28 + 103973 x29 + 109794 x30 + 91794 x31 + 93595 x32
       + 95218 x33 + 93082 x34 + 99731 x35 + 94998 x36 + 98985 x37 + 106161 x38
       + 105490 x39 + 94657 x40 + 104768 x41 + 103681 x42 + 96770 x43
       + 91797 x44 + 106686 x45 + 96254 x46 + 107070 x47 + 105920 x48
       + 92619 x49 + 102587 x50 + 102684 x51 + 101306 x52 + 109698 x53
       + 102120 x54 + 92589 x55 + 103538 x56 + 91247 x57 + 95409 x58
       + 103157 x59 + 93366 x60 + 90539 x61 + 90672 x62 + 108074 x63
       + 102787 x64 + 101409 x65 + 103914 x66 + 109574 x67 + 101845 x68
       + 92254 x69 + 106194 x70 + 94297 x71 + 92767 x72 + 91825 x73
       + 100990 x74 + 96232 x75 + 104696 x76 + 91725 x77 + 92435 x78
       + 108899 x79 + 90186 x80 + 109307 x81 + 95685 x82 + 94692 x83
       + 103745 x84 + 108303 x85 + 100094 x86 + 105770 x87 + 107387 x88
       + 98750 x89 + 90893 x90 + 97895 x91 + 98516 x92 + 92632 x93 + 105686 x94
       + 106318 x95 + 91393 x96 + 97164 x97 + 108395 x98 + 101108 x99
       + 105048 x100 + 97678 x101 + 97257 x102 + 103969 x103 + 92278 x104
       + 100424 x105 + 108146 x106 + 93957 x107 + 106822 x108 + 101872 x109
       + 96877 x110 + 107000 x111 + 109359 x112 + 98699 x113 + 100029 x114
       + 91233 x115 + 108984 x116 + 97596 x117 + 95665 x118 + 104062 x119
       + 107215 x120 + 108944 x121 + 105938 x122 + 108910 x123 + 104920 x124
       + 93640 x125 + 105222 x126 + 90926 x127 + 101654 x128 + 91107 x129
       + 103209 x130 + 93810 x131 + 107644 x132 + 108673 x133 + 104144 x134
       + 102427 x135 + 103179 x136 + 90381 x137 + 105727 x138 + 94029 x139
       + 95373 x140 + 106708 x141 + 94226 x142 + 94668 x143 + 98042 x144
       + 95801 x145 + 95908 x146 + 106787 x147 + 96881 x148 + 101498 x149
       + 99190 x150 + 106740 x151 + 109648 x152 + 104889 x153 + 103100 x154
       + 92243 x155 + 92203 x156 + 94524 x157 + 92153 x158 + 102699 x159
       + 102081 x160 + 107572 x161 + 104775 x162 + 103804 x163 + 92443 x164
       + 105544 x165 + 95846 x166 + 93372 x167 + 109302 x168 + 93262 x169
       + 93454 x170 + 105730 x171 + 95240 x172 + 93125 x173 + 99182 x174
       + 98614 x175 + 105359 x176 + 108422 x177 + 91959 x178 + 93365 x179
       + 109125 x180 + 93842 x181 + 106226 x182 + 109063 x183 + 97409 x184
       + 93972 x185 + 106189 x186 + 91732 x187 + 95297 x188 + 93912 x189
       + 94437 x190 + 90857 x191 + 98136 x192 + 90040 x193 + 95470 x194
       + 97218 x195 + 100795 x196 + 93505 x197 + 102493 x198 + 108359 x199
       + 98280 x200 + 99604 x201 + 98974 x202 + 107956 x203 + 103733 x204
       + 96199 x205 + 103461 x206 + 98490 x207 + 105960 x208 + 101183 x209
       + 105591 x210 + 105487 x211 + 97194 x212 + 106456 x213 + 94484 x214
       + 94529 x215 + 92183 x216 + 90833 x217 + 98348 x218 + 101309 x219
       + 96766 x220 + 94353 x221 + 103128 x222 + 94326 x223 + 94426 x224
       + 91389 x225 + 103427 x226 + 104628 x227 + 91362 x228 + 108375 x229
       + 107374 x230 + 94581 x231 + 95820 x232 + 100663 x233 + 107898 x234
       + 101709 x235 + 106033 x236 + 107507 x237 + 104323 x238 + 103364 x239
       + 90380 x240 + 104109 x241 + 90221 x242 + 103317 x243 + 103199 x244
       + 105362 x245 + 96141 x246 + 102310 x247 + 90227 x248 + 107162 x249
       + 135994 x250 + 18525 x251 + 21992 x252 + 18318 x253 + 21812 x254
       + 18576 x255 + 18017 x256 + 20399 x257 + 20209 x258 + 18470 x259
       + 19714 x260 + 20662 x261 + 21351 x262 + 19900 x263 + 21684 x264
       + 21251 x265 + 20875 x266 + 18622 x267 + 21869 x268 + 20317 x269
       + 18401 x270 + 19077 x271 + 20196 x272 + 20250 x273 + 18365 x274
       + 20839 x275 + 20808 x276 + 21882 x277 + 19337 x278 + 21690 x279
       + 18100 x280 + 18895 x281 + 21953 x282 + 18073 x283 + 18976 x284
       + 21322 x285 + 18994 x286 + 18054 x287 + 21291 x288 + 20063 x289
       + 21873 x290 + 18601 x291 + 19401 x292 + 19756 x293 + 21941 x294
       + 18127 x295 + 18057 x296 + 19121 x297 + 18518 x298 + 20705 x299
       + 24771 x300
Subject To
 c1:   x2 - x8 + x9 - x10 + x11 - x21 + x29 - x30 + x40 - x43 + x46 - x47 - x49
        = 0
 c2:   x52 - x58 + x59 - x60 + x61 - x71 + x79 - x80 + x90 - x93 + x96 - x97
       - x99  = 0
 c3:   x102 - x108 + x109 - x110 + x111 - x121 + x129 - x130 + x140 - x143
       + x146 - x147 - x149  = 0
 c4:   x152 - x158 + x159 - x160 + x161 - x171 + x179 - x180 + x190 - x193
       + x196 - x197 - x199  = 0
 c5:   x202 - x208 + x209 - x210 + x211 - x221 + x229 - x230 + x240 - x243
       + x246 - x247 - x249  = -1
 c6:   - x4 - x6 - x7 + x8 + x13 + x16 - x24 - x25 + x39 - x46 + x48  = 0
 c7:   - x54 - x56 - x57 + x58 + x63 + x66 - x74 - x75 + x89 - x96 + x98  = 0
 c8:   - x104 - x106 - x107 + x108 + x113 + x116 - x124 - x125 + x139 - x146
       + x148  = 0
 c9:   - x154 - x156 - x157 + x158 + x163 + x166 - x174 - x175 + x189 - x196
       + x198  = -1
 c10:  - x204 - x206 - x207 + x208 + x213 + x216 - x224 - x225 + x239 - x246
       + x248  = 0
 c11:  x3 - x9 + x10 - x18 + x22 - x31 - x33 - x36 - x41  = 0
 c12:  x53 - x59 + x60 - x68 + x72 - x81 - x83 - x86 - x91  = -1
 c13:  x103 - x109 + x110 - x118 + x122 - x131 - x133 - x136 - x141  = 0
 c14:  x153 - x159 + x160 - x168 + x172 - x181 - x183 - x186 - x191  = 0
 c15:  x203 - x209 + x210 - x218 + x222 - x231 - x233 - x236 - x241  = 0
 c16:  - x2 + x4 + x12 + x14 - x19 + x20 + x26 + x30 - x37 - x39 + x41 + x42
       - x44  = 0
 c17:  - x52 + x54 + x62 + x64 - x69 + x70 + x76 + x80 - x87 - x89 + x91 + x92
       - x94  = 1
 c18:  - x102 + x104 + x112 + x114 - x119 + x120 + x126 + x130 - x137 - x139
       + x141 + x142 - x144  = 0
 c19:  - x152 + x154 + x162 + x164 - x169 + x170 + x176 + x180 - x187 - x189
       + x191 + x192 - x194  = 0
 c20:  - x202 + x204 + x212 + x214 - x219 + x220 + x226 + x230 - x237 - x239
       + x241 + x242 - x244  = 0
 c21:  x1 + x6 - x12 - x22 - x28 + x32 + x33 + x34 - x50  = 0
 c22:  x51 + x56 - x62 - x72 - x78 + x82 + x83 + x84 - x100  = 0
 c23:  x101 + x106 - x112 - x122 - x128 + x132 + x133 + x134 - x150  = 0
 c24:  x151 + x156 - x162 - x172 - x178 + x182 + x183 + x184 - x200  = 1
 c25:  x201 + x206 - x212 - x222 - x228 + x232 + x233 + x234 - x250  = 0
 c26:  - x3 - x11 - x15 - x16 + x17 + x24 - x26 - x32 - x35 + x37 - x38  = 0
 c27:  - x53 - x61 - x65 - x66 + x67 + x74 - x76 - x82 - x85 + x87 - x88  = 0
 c28:  - x103 - x111 - x115 - x116 + x117 + x124 - x126 - x132 - x135 + x137
       - x138  = 0
 c29:  - x153 - x161 - x165 - x166 + x167 + x174 - x176 - x182 - x185 + x187
       - x188  = 0
 c30:  - x203 - x211 - x215 - x216 + x217 + x224 - x226 - x232 - x235 + x237
       - x238  = 0
 c31:  - x1 + x5 - x17 + x18 - x23 - x27 + x38 - x42 - x45 + x49  = -1
 c32:  - x51 + x55 - x67 + x68 - x73 - x77 + x88 - x92 - x95 + x99  = 0
 c33:  - x101 + x105 - x117 + x118 - x123 - x127 + x138 - x142 - x145 + x149
        = 0
 c34:  - x151 + x155 - x167 + x168 - x173 - x177 + x188 - x192 - x195 + x199
        = 0
 c35:  - x201 + x205 - x217 + x218 - x223 - x227 + x238 - x242 - x245 + x249
        = 0
 c36:  - x13 - x14 + x19 + x23 + x28 - x29 + x43  = 0
 c37:  - x63 - x64 + x69 + x73 + x78 - x79 + x93  = 0
 c38:  - x113 - x114 + x119 + x123 + x128 - x129 + x143  = 1
 c39:  - x163 - x164 + x169 + x173 + x178 - x179 + x193  = 0
 c40:  - x213 - x214 + x219 + x223 + x228 - x229 + x243  = 0
 c41:  - x5 + x7 + x15 + x21 + x31 - x34 + x45 + x50  = 1
 c42:  - x55 + x57 + x65 + x71 + x81 - x84 + x95 + x100  = 0
 c43:  - x105 + x107 + x115 + x121 + x131 - x134 + x145 + x150  = 0
 c44:  - x155 + x157 + x165 + x171 + x181 - x184 + x195 + x200  = 0
 c45:  - x205 + x207 + x215 + x221 + x231 - x234 + x245 + x250  = 0
 c46:  - x20 + x25 + x27 + x35 + x36 - x40 + x44 + x47 - x48  = 0
 c47:  - x70 + x75 + x77 + x85 + x86 - x90 + x94 + x97 - x98  = 0
 c48:  - x120 + x125 + x127 + x135 + x136 - x140 + x144 + x147 - x148  = -1
 c49:  - x170 + x175 + x177 + x185 + x186 - x190 + x194 + x197 - x198  = 0
 c50:  - x220 + x225 + x227 + x235 + x236 - x240 + x244 + x247 - x248  = 1
 c51:  4 x1 + 4 x51 + 4 x101 + 4 x151 + 4 x201 - 2 x251 <= 0
 c52:  4 x2 + 4 x52 + 4 x102 + 4 x152 + 4 x202 - 2 x252 <= 0
 c53:  4 x3 + 4 x53 + 4 x103 + 4 x153 + 4 x203 - 2 x253 <= 0
 c54:  4 x4 + 4 x54 + 4 x104 + 4 x154 + 4 x204 - 2 x254 <= 0
 c55:  4 x5 + 4 x55 + 4 x105 + 4 x155 + 4 x205 - 2 x255 <= 0
 c56:  4 x6 + 4 x56 + 4 x106 + 4 x156 + 4 x206 - 2 x256 <= 0
 c57:  4 x7 + 4 x57 + 4 x107 + 4 x157 + 4 x207 - 2 x257 <= 0
 c58:  4 x8 + 4 x58 + 4 x108 + 4 x158 + 4 x208 - 2 x258 <= 0
 c59:  4 x9 + 4 x59 + 4 x109 + 4 x159 + 4 x209 - 2 x259 <= 0
 c60:  4 x10 + 4 x60 + 4 x110 + 4 x160 + 4 x210 - 2 x260 <= 0
 c61:  4 x11 + 4 x61 + 4 x111 + 4 x161 + 4 x211 - 2 x261 <= 0
 c62:  4 x12 + 4 x62 + 4 x112 + 4 x162 + 4 x212 - 2 x262 <= 0
 c63:  4 x13 + 4 x63 + 4 x113 + 4 x163 + 4 x213 - 2 x263 <= 0
 c64:  4 x14 + 4 x64 + 4 x114 + 4 x164 + 4 x214 - 2 x264 <= 0
 c65:  4 x15 + 4 x65 + 4 x115 + 4 x165 + 4 x215 - 2 x265 <= 0
 c66:  4 x16 + 4 x66 + 4 x116 + 4 x166 + 4 x216 - 2 x266 <= 0
 c67:  4 x17 + 4 x67 + 4 x117 + 4 x167 + 4 x217 - 2 x267 <= 0
 c68:  4 x18 + 4 x68 + 4 x118 + 4 x168 + 4 x218 - 2 x268 <= 0
 c69:  4 x19 + 4 x69 + 4 x119 + 4 x169 + 4 x219 - 2 x269 <= 0
 c70:  4 x20 + 4 x70 + 4 x120 + 4 x170 + 4 x220 - 2 x270 <= 0
 c71:  4 x21 + 4 x71 + 4 x121 + 4 x171 + 4 x221 - 2 x271 <= 0
 c72:  4 x22 + 4 x72 + 4 x122 + 4 x172 + 4 x222 - 2 x272 <= 0
 c73:  4 x23 + 4 x73 + 4 x123 + 4 x173 + 4 x223 - 2 x273 <= 0
 c74:  4 x24 + 4 x74 + 4 x124 + 4 x174 + 4 x224 - 2 x274 <= 0
 c75:  4 x25 + 4 x75 + 4 x125 + 4 x175 + 4 x225 - 2 x275 <= 0
 c76:  4 x26 + 4 x76 + 4 x126 + 4 x176 + 4 x226 - 2 x276 <= 0
 c77:  4 x27 + 4 x77 + 4 x127 + 4 x177 + 4 x227 - 2 x277 <= 0
 c78:  4 x28 + 4 x78 + 4 x128 + 4 x178 + 4 x228 - 2 x278 <= 0
 c79:  4 x29 + 4 x79 + 4 x129 + 4 x179 + 4 x229 - 2 x279 <= 0
 c80:  4 x30 + 4 x80 + 4 x130 + 4 x180 + 4 x230 - 2 x280 <= 0
 c81:  4 x31 + 4 x81 + 4 x131 + 4 x181 + 4 x231 - 2 x281 <= 0
 c82:  4 x32 + 4 x82 + 4 x132 + 4 x182 + 4 x232 - 2 x282 <= 0
 c83:  4 x33 + 4 x83 + 4 x133 + 4 x183 + 4 x233 - 2 x283 <= 0
 c84:  4 x34 + 4 x84 + 4 x134 + 4 x184 + 4 x234 - 2 x284 <= 0
 c85:  4 x35 + 4 x85 + 4 x135 + 4 x185 + 4 x235 - 2 x285 <= 0
 c86:  4 x36 + 4 x86 + 4 x136 + 4 x186 + 4 x236 - 2 x286 <= 0
 c87:  4 x37 + 4 x87 + 4 x137 + 4 x187 + 4 x237 - 2 x287 <= 0
 c88:  4 x38 + 4 x88 + 4 x138 + 4 x188 + 4 x238 - 2 x288 <= 0
 c89:  4 x39 + 4 x89 + 4 x139 + 4 x189 + 4 x239 - 2 x289 <= 0
 c90:  4 x40 + 4 x90 + 4 x140 + 4 x190 + 4 x240 - 2 x290 <= 0
 c91:  4 x41 + 4 x91 + 4 x141 + 4 x191 + 4 x241 - 2 x291 <= 0
 c92:  4 x42 + 4 x92 + 4 x142 + 4 x192 + 4 x242 - 2 x292 <= 0
 c93:  4 x43 + 4 x93 + 4 x143 + 4 x193 + 4 x243 - 2 x293 <= 0
 c94:  4 x44 + 4 x94 + 4 x144 + 4 x194 + 4 x244 - 2 x294 <= 0
 c95:  4 x45 + 4 x95 + 4 x145 + 4 x195 + 4 x245 - 2 x295 <= 0
 c96:  4 x46 + 4 x96 + 4 x146 + 4 x196 + 4 x246 - 2 x296 <= 0
 c97:  4 x47 + 4 x97 + 4 x147 + 4 x197 + 4 x247 - 2 x297 <= 0
 c98:  4 x48 + 4 x98 + 4 x148 + 4 x198 + 4 x248 - 2 x298 <= 0
 c99:  4 x49 + 4 x99 + 4 x149 + 4 x199 + 4 x249 - 2 x299 <= 0
 c100: 4 x50 + 4 x100 + 4 x150 + 4 x200 + 4 x250 - 2 x300 <= 0
Bounds
 0 <= x1 <= 1
 0 <= x2 <= 1
 0 <= x3 <= 1
 0 <= x4 <= 1
 0 <= x5 <= 1
 0 <= x6 <= 1
 0 <= x7 <= 1
 0 <= x8 <= 1
 0 <= x9 <= 1
 0 <= x10 <= 1
 0 <= x11 <= 1
 0 <= x12 <= 1
 0 <= x13 <= 1
 0 <= x14 <= 1
 0 <= x15 <= 1
 0 <= x16 <= 1
 0 <= x17 <= 1
 0 <= x18 <= 1
 0 <= x19 <= 1
 0 <= x20 <= 1
 0 <= x21 <= 1
 0 <= x22 <= 1
 0 <= x23 <= 1
 0 <= x24 <= 1
 0 <= x25 <= 1
 0 <= x26 <= 1
 0 <= x27 <= 1
 0 <= x28 <= 1
 0 <= x29 <= 1
 0 <= x30 <= 1
 0 <= x31 <= 1
 0 <= x32 <= 1
 0 <= x33 <= 1
 0 <= x34 <= 1
 0 <= x35 <= 1
 0 <= x36 <= 1
 0 <= x37 <= 1
 0 <= x38 <= 1
 0 <= x39 <= 1
 0 <= x40 <= 1
 0 <= x41 <= 1
 0 <= x42 <= 1
 0 <= x43 <= 1
 0 <= x44 <= 1
 0 <= x45 <= 1
 0 <= x46 <= 1
 0 <= x47 <= 1
 0 <= x48 <= 1
 0 <= x49 <= 1
 0 <= x50 <= 1
 0 <= x51 <= 1
 0 <= x52 <= 1
 0 <= x53 <= 1
 0 <= x54 <= 1
 0 <= x55 <= 1
 0 <= x56 <= 1
 0 <= x57 <= 1
 0 <= x58 <= 1
 0 <= x59 <= 1
 0 <= x60 <= 1
 0 <= x61 <= 1
 0 <= x62 <= 1
 0 <= x63 <= 1
 0 <= x64 <= 1
 0 <= x65 <= 1
 0 <= x66 <= 1
 0 <= x67 <= 1
 0 <= x68 <= 1
 0 <= x69 <= 1
 0 <= x70 <= 1
 0 <= x71 <= 1
 0 <= x72 <= 1
 0 <= x73 <= 1
 0 <= x74 <= 1
 0 <= x75 <= 1
 0 <= x76 <= 1
 0 <= x77 <= 1
 0 <= x78 <= 1
 0 <= x79 <= 1
 0 <= x80 <= 1
 0 <= x81 <= 1
 0 <= x82 <= 1
 0 <= x83 <= 1
 0 <= x84 <= 1
 0 <= x85 <= 1
 0 <= x86 <= 1
 0 <= x87 <= 1
 0 <= x88 <= 1
 0 <= x89 <= 1
 0 <= x90 <= 1
 0 <= x91 <= 1
 0 <= x92 <= 1
 0 <= x93 <= 1
 0 <= x94 <= 1
 0 <= x95 <= 1
 0 <= x96 <= 1
 0 <= x97 <= 1
 0 <= x98 <= 1
 0 <= x99 <= 1
 0 <= x100 <= 1
 0 <= x101 <= 1
 0 <= x102 <= 1
 0 <= x103 <= 1
 0 <= x104 <= 1
 0 <= x105 <= 1
 0 <= x106 <= 1
 0 <= x107 <= 1
 0 <= x108 <= 1
 0 <= x109 <= 1
 0 <= x110 <= 1
 0 <= x111 <= 1
 0 <= x112 <= 1
 0 <= x113 <= 1
 0 <= x114 <= 1
 0 <= x115 <= 1
 0 <= x116 <= 1
 0 <= x117 <= 1
 0 <= x118 <= 1
 0 <= x119 <= 1
 0 <= x120 <= 1
 0 <= x121 <= 1
 0 <= x122 <= 1
 0 <= x123 <= 1
 0 <= x124 <= 1
 0 <= x125 <= 1
 0 <= x126 <= 1
 0 <= x127 <= 1
 0 <= x128 <= 1
 0 <= x129 <= 1
 0 <= x130 <= 1
 0 <= x131 <= 1
 0 <= x132 <= 1
 0 <= x133 <= 1
 0 <= x134 <= 1
 0 <= x135 <= 1
 0 <= x136 <= 1
 0 <= x137 <= 1
 0 <= x138 <= 1
 0 <= x139 <= 1
 0 <= x140 <= 1
 0 <= x141 <= 1
 0 <= x142 <= 1
 0 <= x143 <= 1
 0 <= x144 <= 1
 0 <= x145 <= 1
 0 <= x146 <= 1
 0 <= x147 <= 1
 0 <= x148 <= 1
 0 <= x149 <= 1
 0 <= x150 <= 1
 0 <= x151 <= 1
 0 <= x152 <= 1
 0 <= x153 <= 1
 0 <= x154 <= 1
 0 <= x155 <= 1
 0 <= x156 <= 1
 0 <= x157 <= 1
 0 <= x158 <= 1
 0 <= x159 <= 1
 0 <= x160 <= 1
 0 <= x161 <= 1
 0 <= x162 <= 1
 0 <= x163 <= 1
 0 <= x164 <= 1
 0 <= x165 <= 1
 0 <= x166 <= 1
 0 <= x167 <= 1
 0 <= x168 <= 1
 0 <= x169 <= 1
 0 <= x170 <= 1
 0 <= x171 <= 1
 0 <= x172 <= 1
 0 <= x173 <= 1
 0 <= x174 <= 1
 0 <= x175 <= 1
 0 <= x176 <= 1
 0 <= x177 <= 1
 0 <= x178 <= 1
 0 <= x179 <= 1
 0 <= x180 <= 1
 0 <= x181 <= 1
 0 <= x182 <= 1
 0 <= x183 <= 1
 0 <= x184 <= 1
 0 <= x185 <= 1
 0 <= x186 <= 1
 0 <= x187 <= 1
 0 <= x188 <= 1
 0 <= x189 <= 1
 0 <= x190 <= 1
 0 <= x191 <= 1
 0 <= x192 <= 1
 0 <= x193 <= 1
 0 <= x194 <= 1
 0 <= x195 <= 1
 0 <= x196 <= 1
 0 <= x197 <= 1
 0 <= x198 <= 1
 0 <= x199 <= 1
 0 <= x200 <= 1
 0 <= x201 <= 1
 0 <= x202 <= 1
 0 <= x203 <= 1
 0 <= x204 <= 1
 0 <= x205 <= 1
 0 <= x206 <= 1
 0 <= x207 <= 1
 0 <= x208 <= 1
 0 <= x209 <= 1
 0 <= x210 <= 1
 0 <= x211 <= 1
 0 <= x212 <= 1
 0 <= x213 <= 1
 0 <= x214 <= 1
 0 <= x215 <= 1
 0 <= x216 <= 1
 0 <= x217 <= 1
 0 <= x218 <= 1
 0 <= x219 <= 1
 0 <= x220 <= 1
 0 <= x221 <= 1
 0 <= x222 <= 1
 0 <= x223 <= 1
 0 <= x224 <= 1
 0 <= x225 <= 1
 0 <= x226 <= 1
 0 <= x227 <= 1
 0 <= x228 <= 1
 0 <= x229 <= 1
 0 <= x230 <= 1
 0 <= x231 <= 1
 0 <= x232 <= 1
 0 <= x233 <= 1
 0 <= x234 <= 1
 0 <= x235 <= 1
 0 <= x236 <= 1
 0 <= x237 <= 1
 0 <= x238 <= 1
 0 <= x239 <= 1
 0 <= x240 <= 1
 0 <= x241 <= 1
 0 <= x242 <= 1
 0 <= x243 <= 1
 0 <= x244 <= 1
 0 <= x245 <= 1
 0 <= x246 <= 1
 0 <= x247 <= 1
 0 <= x248 <= 1
 0 <= x249 <= 1
 0 <= x250 <= 1
 0 <= x251 <= 1
 0 <= x252 <= 1
 0 <= x253 <= 1
 0 <= x254 <= 1
 0 <= x255 <= 1
 0 <= x256 <= 1
 0 <= x257 <= 1
 0 <= x258 <= 1
 0 <= x259 <= 1
 0 <= x260 <= 1
 0 <= x261 <= 1
 0 <= x262 <= 1
 0 <= x263 <= 1
 0 <= x264 <= 1
 0 <= x265 <= 1
 0 <= x266 <= 1
 0 <= x267 <= 1
 0 <= x268 <= 1
 0 <= x269 <= 1
 0 <= x270 <= 1
 0 <= x271 <= 1
 0 <= x272 <= 1
 0 <= x273 <= 1
 0 <= x274 <= 1
 0 <= x275 <= 1
 0 <= x276 <= 1
 0 <= x277 <= 1
 0 <= x278 <= 1
 0 <= x279 <= 1
 0 <= x280 <= 1
 0 <= x281 <= 1
 0 <= x282 <= 1
 0 <= x283 <= 1
 0 <= x284 <= 1
 0 <= x285 <= 1
 0 <= x286 <= 1
 0 <= x287 <= 1
 0 <= x288 <= 1
 0 <= x289 <= 1
 0 <= x290 <= 1
 0 <= x291 <= 1
 0 <= x292 <= 1
 0 <= x293 <= 1
 0 <= x294 <= 1
 0 <= x295 <= 1
 0 <= x296 <= 1
 0 <= x297 <= 1
 0 <= x298 <= 1
 0 <= x299 <= 1
 0 <= x300 <= 1
Binaries
 x251  x252  x253  x254  x255  x256  x257  x258  x259  x260  x261  x262  x263 
 x264  x265  x266  x267  x268  x269  x270  x271  x272  x273  x274  x275  x276 
 x277  x278  x279  x280  x281  x282  x283  x284  x285  x286  x287  x288  x289 
 x290  x291  x292  x293  x294  x295  x296  x297  x298  x299  x300 
End
